# Cost: 189

# Tail Head Net
33 13 1
53 33 1
73 53 1
74 73 1
75 74 1
95 75 1
96 95 1
116 96 1
136 116 1
156 136 1
176 156 1
196 176 1
216 196 1
236 216 1
256 236 1
276 256 1
277 276 1
277 297 1
278 277 1
279 278 1
280 279 1
297 317 1
317 337 1
337 357 1
357 377 1
377 397 1
391 390 1
392 391 1
393 392 1
394 393 1
395 394 1
396 395 1
397 396 1
18 19 2
19 20 2
38 18 2
58 38 2
78 58 2
98 78 2
117 118 2
118 98 2
128 129 2
129 529 2
141 142 2
142 143 2
143 144 2
144 145 2
145 146 2
145 165 2
146 147 2
147 148 2
148 128 2
165 185 2
185 205 2
205 225 2
225 245 2
245 265 2
265 285 2
285 305 2
305 325 2
325 345 2
345 365 2
365 385 2
511 512 2
512 513 2
513 514 2
514 515 2
515 516 2
516 517 2
517 117 2
529 530 2
530 531 2
531 511 2
220 240 3
240 260 3
247 267 3
260 660 3
267 287 3
287 307 3
307 327 3
327 347 3
347 367 3
367 387 3
387 386 3
408 8 3
428 408 3
448 428 3
468 448 3
488 468 3
508 488 3
528 508 3
548 528 3
568 548 3
588 568 3
608 588 3
628 608 3
647 247 3
648 628 3
648 647 3
649 648 3
650 649 3
651 650 3
652 651 3
653 652 3
654 653 3
655 654 3
656 655 3
657 656 3
658 657 3
659 658 3
660 659 3
660 680 3
680 700 3
700 300 3
221 201 4
241 221 4
261 241 4
261 281 4
281 301 4
301 321 4
321 341 4
341 342 4
342 362 4
362 363 4
363 383 4
12 32 5
16 416 5
32 52 5
42 41 5
43 42 5
44 43 5
45 44 5
46 45 5
47 46 5
48 47 5
49 48 5
50 49 5
50 70 5
51 50 5
52 51 5
70 90 5
90 110 5
110 130 5
130 150 5
150 170 5
169 189 5
170 169 5
189 209 5
209 229 5
229 249 5
249 269 5
269 289 5
289 309 5
309 329 5
329 349 5
349 369 5
369 389 5
412 12 5
413 412 5
414 413 5
415 414 5
416 415 5
4 5 6
5 6 6
6 7 6
7 27 6
27 28 6
28 29 6
29 429 6
139 140 6
140 160 6
160 180 6
180 200 6
429 449 6
449 469 6
469 470 6
470 490 6
490 491 6
491 492 6
492 493 6
493 494 6
494 495 6
495 496 6
496 497 6
497 498 6
498 518 6
518 538 6
538 539 6
539 139 6
